Lectures/Lec11-SetCover-Primal.lp
min	 8x1 + 3x2 + 8x3 + 4x4 + x5
s.t.   
	x1 + x3 >=1 
	x1+ x4 >=1
	x3+ x4 >=1 
	x2 + x5 >=1 
	x2 + x3 + x5 >=1 
	x2 + x4 >= 1
	x1 >=0
	x1 <=1
	x2 >=0
	x2 <=1
	x3 >=0
	x3 <=1
	x4 >=0
	x4 <=1
	x5 >=0
	x5 <=1
end
