Lectures/Lec11-SetCover-Primal.lp.out
Problem:    
Rows:       16
Columns:    5
Non-zeros:  23
Status:     OPTIMAL
Objective:  obj = 12 (MINimum)

   No.   Row name   St   Activity     Lower bound   Upper bound    Marginal
------ ------------ -- ------------- ------------- ------------- -------------
     1 r.3          NL             1             1                           7
     2 r.4          NL             1             1                           1
     3 r.5          NL             1             1                           1
     4 r.6          NL             1             1                           1
     5 r.7          B            1.5             1               
     6 r.8          NL             1             1                           2
     7 r.9          B            0.5             0               
     8 r.10         B            0.5                           1 
     9 r.11         B            0.5             0               
    10 r.12         B            0.5                           1 
    11 r.13         B            0.5             0               
    12 r.14         B            0.5                           1 
    13 r.15         B            0.5             0               
    14 r.16         B            0.5                           1 
    15 r.17         B            0.5             0               
    16 r.18         B            0.5                           1 

   No. Column name  St   Activity     Lower bound   Upper bound    Marginal
------ ------------ -- ------------- ------------- ------------- -------------
     1 x1           B            0.5             0               
     2 x2           B            0.5             0               
     3 x3           B            0.5             0               
     4 x4           B            0.5             0               
     5 x5           B            0.5             0               

Karush-Kuhn-Tucker optimality conditions:

KKT.PE: max.abs.err. = 0.00e+00 on row 0
        max.rel.err. = 0.00e+00 on row 0
        High quality

KKT.PB: max.abs.err. = 0.00e+00 on row 0
        max.rel.err. = 0.00e+00 on row 0
        High quality

KKT.DE: max.abs.err. = 0.00e+00 on column 0
        max.rel.err. = 0.00e+00 on column 0
        High quality

KKT.DB: max.abs.err. = 0.00e+00 on row 0
        max.rel.err. = 0.00e+00 on row 0
        High quality

End of output
